bacp/03/params/inst-427-1-960833342.param
language Essence 1.3
$ generated by bacp-gen.pl with seed 960833342
$ edge probability 0.094
$ course loads in range 4..8
letting n_courses be 142
letting n_periods be 23
letting load_per_period_lb be 5
letting load_per_period_ub be 36
letting courses_per_period_lb be 3
letting courses_per_period_ub be 9
letting course_load be function(
1 --> 7,
2 --> 8,
3 --> 5,
4 --> 4,
5 --> 6,
6 --> 7,
7 --> 7,
8 --> 4,
9 --> 4,
10 --> 6,
11 --> 7,
12 --> 5,
13 --> 6,
14 --> 8,
15 --> 5,
16 --> 6,
17 --> 7,
18 --> 4,
19 --> 4,
20 --> 8,
21 --> 5,
22 --> 4,
23 --> 6,
24 --> 7,
25 --> 5,
26 --> 7,
27 --> 6,
28 --> 7,
29 --> 4,
30 --> 8,
31 --> 7,
32 --> 4,
33 --> 7,
34 --> 5,
35 --> 8,
36 --> 5,
37 --> 6,
38 --> 8,
39 --> 7,
40 --> 8,
41 --> 5,
42 --> 5,
43 --> 6,
44 --> 6,
45 --> 4,
46 --> 7,
47 --> 5,
48 --> 4,
49 --> 5,
50 --> 5,
51 --> 5,
52 --> 5,
53 --> 4,
54 --> 4,
55 --> 7,
56 --> 8,
57 --> 8,
58 --> 7,
59 --> 5,
60 --> 6,
61 --> 7,
62 --> 7,
63 --> 5,
64 --> 7,
65 --> 8,
66 --> 7,
67 --> 4,
68 --> 6,
69 --> 4,
70 --> 7,
71 --> 4,
72 --> 7,
73 --> 5,
74 --> 5,
75 --> 6,
76 --> 8,
77 --> 5,
78 --> 4,
79 --> 6,
80 --> 6,
81 --> 4,
82 --> 5,
83 --> 6,
84 --> 5,
85 --> 8,
86 --> 5,
87 --> 5,
88 --> 7,
89 --> 5,
90 --> 5,
91 --> 7,
92 --> 8,
93 --> 4,
94 --> 6,
95 --> 6,
96 --> 5,
97 --> 5,
98 --> 5,
99 --> 6,
100 --> 8,
101 --> 7,
102 --> 4,
103 --> 6,
104 --> 5,
105 --> 7,
106 --> 6,
107 --> 4,
108 --> 7,
109 --> 5,
110 --> 4,
111 --> 7,
112 --> 4,
113 --> 4,
114 --> 6,
115 --> 4,
116 --> 4,
117 --> 4,
118 --> 5,
119 --> 6,
120 --> 7,
121 --> 4,
122 --> 6,
123 --> 7,
124 --> 4,
125 --> 4,
126 --> 7,
127 --> 5,
128 --> 6,
129 --> 6,
130 --> 4,
131 --> 5,
132 --> 6,
133 --> 6,
134 --> 5,
135 --> 5,
136 --> 4,
137 --> 6,
138 --> 6,
139 --> 5,
140 --> 7,
141 --> 4,
142 --> 6
)
letting prerequisite be relation (
(23,40),
(1,41),
(4,42),
(25,43),
(35,44),
(37,45),
(4,46),
(20,47),
(35,48),
(32,49),
(31,50),
(39,51),
(17,52),
(36,53),
(23,54),
(9,55),
(37,56),
(8,57),
(13,58),
(4,59),
(31,60),
(27,61),
(19,62),
(23,63),
(21,64),
(39,65),
(18,66),
(14,67),
(13,68),
(3,69),
(4,70),
(8,71),
(27,72),
(11,73),
(17,74),
(35,75),
(16,76),
(16,77),
(37,78),
(29,79),
(16,80),
(18,81),
(35,82),
(25,83),
(27,84),
(13,85),
(10,86),
(9,87),
(29,88),
(28,89),
(33,90),
(8,91),
(9,92),
(5,93),
(15,94),
(25,95),
(29,96),
(13,97),
(21,98),
(8,99),
(18,100),
(6,101),
(36,102),
(10,103),
(8,104),
(29,105),
(12,106),
(22,107),
(19,108),
(29,109),
(6,110),
(10,111),
(5,112),
(18,113),
(9,114),
(36,115),
(30,116),
(79,117),
(103,118),
(85,119),
(56,120),
(70,121),
(53,122),
(87,123),
(61,124),
(75,125),
(96,126),
(103,127),
(73,128),
(89,129),
(59,130),
(65,131),
(64,132),
(116,133),
(71,134),
(81,135),
(70,136),
(97,137),
(109,138),
(77,139),
(64,140),
(113,141),
(89,142),
(26,97),
(96,135),
(38,80),
(30,50),
(70,142),
(71,139),
(33,79),
(80,139),
(35,98),
(94,119),
(16,79),
(111,142),
(23,98),
(20,44),
(31,74),
(30,68),
(37,40),
(39,109),
(78,133),
(12,113),
(32,89),
(20,75),
(5,95),
(66,119),
(15,48),
(16,65),
(29,45),
(65,142),
(35,100),
(26,107),
(23,112),
(33,59),
(24,94),
(2,54),
(26,43),
(32,59),
(28,56),
(22,99),
(38,69),
(47,136),
(33,49),
(91,120),
(3,91),
(101,132),
(24,108),
(31,47),
(11,114),
(88,137),
(53,120),
(49,123),
(89,128),
(5,50),
(37,74),
(71,126),
(19,55),
(31,91),
(31,112),
(23,110),
(67,133),
(98,127),
(84,136),
(10,67),
(6,93),
(73,133),
(10,54),
(69,129),
(70,130),
(77,127),
(37,80),
(100,117),
(10,53),
(38,58),
(75,131),
(5,58),
(13,111),
(27,82),
(59,119),
(18,60),
(2,72),
(40,126),
(44,123),
(73,135),
(28,61),
(34,94),
(24,49),
(71,136),
(9,103),
(12,80),
(30,60),
(73,137),
(32,110),
(107,138),
(56,117),
(32,80),
(58,119),
(1,71),
(92,131),
(72,129),
(86,126),
(25,103),
(1,115),
(1,116),
(105,120),
(11,41),
(19,48),
(14,61),
(35,57),
(32,69),
(16,71),
(39,106),
(94,134),
(35,81),
(85,126),
(76,125),
(33,77),
(49,127),
(52,122),
(35,99),
(91,141),
(35,70),
(30,81),
(46,123),
(36,40),
(113,133),
(17,78),
(96,128),
(18,106),
(5,47),
(76,135),
(3,108),
(31,88),
(31,99),
(11,88),
(72,130),
(41,142),
(41,125),
(35,85),
(7,99),
(96,142),
(23,60),
(38,75),
(27,59),
(86,120),
(2,89),
(109,120),
(26,101),
(90,121),
(68,123),
(45,131),
(11,68),
(31,49),
(8,101),
(4,113),
(33,67),
(13,59),
(12,44),
(46,120),
(61,123),
(31,106),
(3,87),
(27,79),
(35,63),
(86,118),
(76,118),
(49,120),
(86,140),
(47,142),
(15,109),
(27,69),
(99,130),
(31,80),
(71,121),
(67,129),
(51,135),
(33,81),
(20,45),
(75,123),
(61,131),
(74,130),
(8,50),
(64,137),
(46,133),
(27,68),
(69,128),
(17,116),
(27,46),
(12,54),
(5,73),
(23,108),
(77,122),
(54,141),
(90,127),
(70,124),
(29,85),
(50,128),
(7,80),
(14,80),
(72,118),
(8,110),
(32,74),
(22,63),
(111,127),
(112,125),
(43,119),
(35,80),
(12,72),
(76,142),
(30,93),
(15,87),
(59,127),
(25,56),
(23,65),
(22,97),
(30,115),
(109,136),
(30,104),
(88,139),
(62,129),
(75,124),
(102,130),
(37,85),
(1,75),
(100,134),
(105,142),
(61,141),
(31,66),
(27,43),
(80,128),
(7,86),
(4,89),
(40,134),
(6,51),
(34,40),
(22,60),
(102,120),
(69,127),
(30,54),
(55,123),
(32,48),
(57,129),
(87,140),
(5,51),
(41,121),
(48,125),
(19,110),
(64,126),
(3,48),
(45,127),
(69,118),
(34,81),
(97,135),
(54,127),
(37,94),
(102,119),
(102,136),
(12,96),
(21,55),
(77,120),
(109,123),
(87,119),
(112,124),
(35,105),
(91,138),
(105,123),
(4,100),
(88,128),
(93,133),
(109,119),
(4,66),
(10,63),
(28,83),
(103,122),
(7,54),
(75,137),
(41,131),
(18,40),
(7,104),
(48,119),
(77,133),
(27,57),
(24,59),
(9,63),
(14,58),
(50,137),
(100,142),
(109,137),
(72,132),
(113,138),
(6,111),
(68,122),
(31,45),
(16,51),
(18,56),
(59,122),
(47,120),
(13,102),
(67,126),
(74,119),
(105,136),
(39,107),
(79,120),
(73,119),
(16,53),
(32,84),
(7,94),
(78,132),
(95,120),
(66,135),
(74,140),
(86,121),
(43,132),
(55,122),
(6,75),
(105,121),
(45,120),
(49,138),
(50,130),
(35,107),
(75,138),
(6,54),
(21,54),
(9,95),
(28,92),
(83,119),
(6,55),
(103,136),
(100,135),
(2,58),
(25,102),
(84,126),
(13,82),
(63,131),
(8,114),
(9,70),
(27,58),
(27,103),
(15,80),
(66,117),
(49,132),
(37,97),
(33,45),
(68,140),
(7,67),
(17,47),
(64,120),
(87,138),
(31,76),
(26,81),
(114,124),
(29,73),
(5,107),
(3,106),
(41,141),
(30,106),
(36,111),
(26,83),
(33,69),
(6,104),
(33,114),
(13,107),
(17,107),
(4,54),
(77,131),
(10,66),
(11,42),
(46,135),
(16,86)
)

