bacp/param_dec/inst-427-1-960833342.eprime-param
language ESSENCE' 1.0

letting n_courses be 142
letting n_periods be 23
letting prerequisite_RelationAsSet_Explicit_1 be
        [1, 1, 1, 1, 1, 2, 2, 2, 2, 3, 3, 3, 3, 3, 3, 4, 4, 4, 4, 4, 4, 4, 4, 4, 5, 5, 5, 5, 5, 5, 5, 5, 5, 6, 6, 6, 6,
         6, 6, 6, 6, 6, 7, 7, 7, 7, 7, 7, 7, 8, 8, 8, 8, 8, 8, 8, 8, 8, 9, 9, 9, 9, 9, 9, 9, 9, 10, 10, 10, 10, 10, 10,
         10, 10, 11, 11, 11, 11, 11, 11, 12, 12, 12, 12, 12, 12, 12, 13, 13, 13, 13, 13, 13, 13, 13, 13, 14, 14, 14, 14,
         15, 15, 15, 15, 15, 16, 16, 16, 16, 16, 16, 16, 16, 16, 17, 17, 17, 17, 17, 17, 18, 18, 18, 18, 18, 18, 18, 18,
         19, 19, 19, 19, 19, 20, 20, 20, 20, 21, 21, 21, 21, 22, 22, 22, 22, 22, 23, 23, 23, 23, 23, 23, 23, 23, 23, 24,
         24, 24, 24, 25, 25, 25, 25, 25, 25, 26, 26, 26, 26, 26, 26, 27, 27, 27, 27, 27, 27, 27, 27, 27, 27, 27, 27, 27,
         28, 28, 28, 28, 28, 29, 29, 29, 29, 29, 29, 29, 29, 30, 30, 30, 30, 30, 30, 30, 30, 30, 30, 31, 31, 31, 31, 31,
         31, 31, 31, 31, 31, 31, 31, 31, 31, 32, 32, 32, 32, 32, 32, 32, 32, 32, 33, 33, 33, 33, 33, 33, 33, 33, 33, 33,
         34, 34, 34, 35, 35, 35, 35, 35, 35, 35, 35, 35, 35, 35, 35, 35, 35, 35, 36, 36, 36, 36, 36, 37, 37, 37, 37, 37,
         37, 37, 37, 37, 38, 38, 38, 38, 39, 39, 39, 39, 39, 40, 40, 41, 41, 41, 41, 41, 43, 43, 44, 45, 45, 45, 46, 46,
         46, 46, 47, 47, 47, 48, 48, 49, 49, 49, 49, 49, 50, 50, 50, 51, 52, 53, 53, 54, 54, 55, 55, 56, 56, 57, 58, 59,
         59, 59, 59, 61, 61, 61, 61, 62, 63, 64, 64, 64, 64, 64, 65, 65, 66, 66, 66, 67, 67, 67, 68, 68, 68, 69, 69, 69,
         69, 70, 70, 70, 70, 70, 71, 71, 71, 71, 71, 72, 72, 72, 72, 73, 73, 73, 73, 73, 74, 74, 74, 75, 75, 75, 75, 75,
         75, 76, 76, 76, 76, 77, 77, 77, 77, 77, 77, 78, 78, 79, 79, 80, 80, 81, 83, 84, 84, 85, 85, 86, 86, 86, 86, 86,
         87, 87, 87, 87, 88, 88, 88, 89, 89, 89, 90, 90, 91, 91, 91, 92, 93, 94, 94, 95, 96, 96, 96, 96, 97, 97, 98, 99,
         100, 100, 100, 100, 101, 102, 102, 102, 102, 103, 103, 103, 103, 105, 105, 105, 105, 105, 107, 109, 109, 109,
         109, 109, 109, 111, 111, 112, 112, 113, 113, 113, 114, 116;
             int(1..470)]
letting prerequisite_RelationAsSet_Explicit_2 be
        [41, 71, 75, 115, 116, 54, 58, 72, 89, 48, 69, 87, 91, 106, 108, 42, 46, 54, 59, 66, 70, 89, 100, 113, 47, 50,
         51, 58, 73, 93, 95, 107, 112, 51, 54, 55, 75, 93, 101, 104, 110, 111, 54, 67, 80, 86, 94, 99, 104, 50, 57, 71,
         91, 99, 101, 104, 110, 114, 55, 63, 70, 87, 92, 95, 103, 114, 53, 54, 63, 66, 67, 86, 103, 111, 41, 42, 68, 73,
         88, 114, 44, 54, 72, 80, 96, 106, 113, 58, 59, 68, 82, 85, 97, 102, 107, 111, 58, 61, 67, 80, 48, 80, 87, 94,
         109, 51, 53, 65, 71, 76, 77, 79, 80, 86, 47, 52, 74, 78, 107, 116, 40, 56, 60, 66, 81, 100, 106, 113, 48, 55,
         62, 108, 110, 44, 45, 47, 75, 54, 55, 64, 98, 60, 63, 97, 99, 107, 40, 54, 60, 63, 65, 98, 108, 110, 112, 49,
         59, 94, 108, 43, 56, 83, 95, 102, 103, 43, 81, 83, 97, 101, 107, 43, 46, 57, 58, 59, 61, 68, 69, 72, 79, 82,
         84, 103, 56, 61, 83, 89, 92, 45, 73, 79, 85, 88, 96, 105, 109, 50, 54, 60, 68, 81, 93, 104, 106, 115, 116, 45,
         47, 49, 50, 60, 66, 74, 76, 80, 88, 91, 99, 106, 112, 48, 49, 59, 69, 74, 80, 84, 89, 110, 45, 49, 59, 67, 69,
         77, 79, 81, 90, 114, 40, 81, 94, 44, 48, 57, 63, 70, 75, 80, 81, 82, 85, 98, 99, 100, 105, 107, 40, 53, 102,
         111, 115, 40, 45, 56, 74, 78, 80, 85, 94, 97, 58, 69, 75, 80, 51, 65, 106, 107, 109, 126, 134, 121, 125, 131,
         141, 142, 119, 132, 123, 120, 127, 131, 120, 123, 133, 135, 120, 136, 142, 119, 125, 120, 123, 127, 132, 138,
         128, 130, 137, 135, 122, 120, 122, 127, 141, 122, 123, 117, 120, 129, 119, 119, 122, 127, 130, 123, 124, 131,
         141, 129, 131, 120, 126, 132, 137, 140, 131, 142, 117, 119, 135, 126, 129, 133, 122, 123, 140, 118, 127, 128,
         129, 121, 124, 130, 136, 142, 121, 126, 134, 136, 139, 118, 129, 130, 132, 119, 128, 133, 135, 137, 119, 130,
         140, 123, 124, 125, 131, 137, 138, 118, 125, 135, 142, 120, 122, 127, 131, 133, 139, 132, 133, 117, 120, 128,
         139, 135, 119, 126, 136, 119, 126, 118, 120, 121, 126, 140, 119, 123, 138, 140, 128, 137, 139, 128, 129, 142,
         121, 127, 120, 138, 141, 131, 133, 119, 134, 120, 126, 128, 135, 142, 135, 137, 127, 130, 117, 134, 135, 142,
         132, 119, 120, 130, 136, 118, 122, 127, 136, 120, 121, 123, 136, 142, 138, 119, 120, 123, 136, 137, 138, 127,
         142, 124, 125, 133, 138, 141, 124, 133;
             int(1..470)]
letting course_load_Function1D be
        [7, 8, 5, 4, 6, 7, 7, 4, 4, 6, 7, 5, 6, 8, 5, 6, 7, 4, 4, 8, 5, 4, 6, 7, 5, 7, 6, 7, 4, 8, 7, 4, 7, 5, 8, 5, 6,
         8, 7, 8, 5, 5, 6, 6, 4, 7, 5, 4, 5, 5, 5, 5, 4, 4, 7, 8, 8, 7, 5, 6, 7, 7, 5, 7, 8, 7, 4, 6, 4, 7, 4, 7, 5, 5,
         6, 8, 5, 4, 6, 6, 4, 5, 6, 5, 8, 5, 5, 7, 5, 5, 7, 8, 4, 6, 6, 5, 5, 5, 6, 8, 7, 4, 6, 5, 7, 6, 4, 7, 5, 4, 7,
         4, 4, 6, 4, 4, 4, 5, 6, 7, 4, 6, 7, 4, 4, 7, 5, 6, 6, 4, 5, 6, 6, 5, 5, 4, 6, 6, 5, 7, 4, 6;
             int(1..142)]
letting load_per_period_ub be 36
letting load_per_period_lb be 5
letting courses_per_period_ub be 9
letting courses_per_period_lb be 3
letting fin1 be 470
letting fin2 be 142
letting fin3 be 8
